50
    1   228   218
    2   105    95
    3   429   419
    4   177   167
    5    15     5
    6   187   177
    7   436   426
    8   331   321
    9    25    15
   10   232   222
   11   474   464
   12   484   474
   13    38    28
   14    32    22
   15   328   318
   16   302   292
   17   270   260
   18   317   307
   19   231   221
   20   173   163
   21   420   410
   22   374   364
   23   468   458
   24   174   164
   25   213   203
   26   230   220
   27    81    71
   28   321   311
   29   277   267
   30    14     4
   31   101    91
   32   207   197
   33   282   272
   34    37    27
   35   317   307
   36   121   111
   37   234   224
   38    69    59
   39    59    49
   40   264   254
   41   174   164
   42   456   446
   43    88    78
   44   282   272
   45   457   447
   46   247   237
   47   267   257
   48   491   481
   49   329   319
   50   456   446
5912
